c A SAT instance generated from a 3-CNF formula that had 16 clauses and 8 variables
p cnf 8 16
5 -4 1 0
-1 -8 -2 0
7 2 1 0
1 -7 -4 0
5 3 6 0
7 -4 -8 0
2 -4 -1 0
5 -1 3 0
-4 -7 -5 0
3 5 1 0
2 -1 6 0
4 -5 2 0
-3 -5 -7 0
4 6 8 0
-4 -3 -5 0
-5 3 6 0
